words_hard_train/4683.qaiger
aag 58 12 0 1 46
2
4
12
14
18
22
36
46
56
72
90
92
117
6 2 4
8 3 5
10 7 9
16 13 15
20 16 19
24 20 23
26 10 25
28 11 24
30 27 29
32 12 14
34 33 17
38 35 37
40 34 36
42 39 41
44 42 12
48 44 46
50 49 41
52 17 18
54 53 21
58 55 57
60 54 56
62 59 61
64 51 62
66 65 61
68 21 22
70 69 25
74 71 73
76 70 72
78 75 77
80 67 78
82 81 77
84 30 83
86 31 82
88 85 87
94 91 93
96 50 63
98 97 65
100 94 99
102 66 79
104 103 81
106 100 105
108 43 47
110 108 13
112 111 49
114 106 113
116 89 115
i0 2 y1[7]
i1 1 x2[4]
i2 1 x2[0]
i3 1 x2[1]
i4 1 x2[2]
i5 1 x2[3]
i6 2 y1[4]
i7 2 y1[3]
i8 2 y1[5]
i9 2 y1[6]
i10 2 y1[1]
i11 2 y1[2]
o0 bv[0]
c
simplified
  <=
    subtract
      2 y1
      << 3
        1 x2
    and
      1
      1
