words_hard_train/4683.qaiger.qdimacs
p cnf 58 139
a 2 6 7 9 11 0
e 1 3 4 5 8 10 12 13 14 15 16 17 18 19 20 21 22 23 24 25 26 27 28 29 30 31 32 33 34 35 36 37 38 39 40 41 42 43 44 45 46 47 48 49 50 51 52 53 54 55 56 57 58 0
-1 -2 3 0
1 -3 0
2 -3 0
1 2 4 0
-1 -4 0
-2 -4 0
3 4 5 0
-3 -5 0
-4 -5 0
6 7 8 0
-6 -8 0
-7 -8 0
-8 9 10 0
8 -10 0
-9 -10 0
-10 11 12 0
10 -12 0
-11 -12 0
-5 12 13 0
5 -13 0
-12 -13 0
5 -12 14 0
-5 -14 0
12 -14 0
13 14 15 0
-13 -15 0
-14 -15 0
-6 -7 16 0
6 -16 0
7 -16 0
16 8 17 0
-16 -17 0
-8 -17 0
17 18 19 0
-17 -19 0
-18 -19 0
-17 -18 20 0
17 -20 0
18 -20 0
19 20 21 0
-19 -21 0
-20 -21 0
-21 -6 22 0
21 -22 0
6 -22 0
-22 -23 24 0
22 -24 0
23 -24 0
24 20 25 0
-24 -25 0
-20 -25 0
8 -9 26 0
-8 -26 0
9 -26 0
26 10 27 0
-26 -27 0
-10 -27 0
27 28 29 0
-27 -29 0
-28 -29 0
-27 -28 30 0
27 -30 0
28 -30 0
29 30 31 0
-29 -31 0
-30 -31 0
25 -31 32 0
-25 -32 0
31 -32 0
32 30 33 0
-32 -33 0
-30 -33 0
10 -11 34 0
-10 -34 0
11 -34 0
34 12 35 0
-34 -35 0
-12 -35 0
35 36 37 0
-35 -37 0
-36 -37 0
-35 -36 38 0
35 -38 0
36 -38 0
37 38 39 0
-37 -39 0
-38 -39 0
33 -39 40 0
-33 -40 0
39 -40 0
40 38 41 0
-40 -41 0
-38 -41 0
-15 41 42 0
15 -42 0
-41 -42 0
15 -41 43 0
-15 -43 0
41 -43 0
42 43 44 0
-42 -44 0
-43 -44 0
45 46 47 0
-45 -47 0
-46 -47 0
-25 31 48 0
25 -48 0
-31 -48 0
48 32 49 0
-48 -49 0
-32 -49 0
-47 49 50 0
47 -50 0
-49 -50 0
-33 39 51 0
33 -51 0
-39 -51 0
51 40 52 0
-51 -52 0
-40 -52 0
-50 52 53 0
50 -53 0
-52 -53 0
21 23 54 0
-21 -54 0
-23 -54 0
-54 6 55 0
54 -55 0
-6 -55 0
55 24 56 0
-55 -56 0
-24 -56 0
-53 56 57 0
53 -57 0
-56 -57 0
44 57 58 0
-44 -58 0
-57 -58 0
-58 0
